c clasp version 2.1.1
c Reading from p71.cnf
c Solving...
s SATISFIABLE

c Models        : 1+    
c Time          : 1.602s (Solving: 0.72s 1st Model: 0.72s Unsat: 0.00s)
c CPU Time      : 1.590s
c Choices       : 32139
c Conflicts     : 2904
c Restarts      : 4      (Average: 726.00 Last: 889)

c Variables     : 224518 (Eliminated: 69995 Frozen:    0)
c Constraints   : 249755 (Binary: 65.2% Ternary: 33.4% Other:  1.4%)
c Lemmas        : 2904   (Binary:  0.2% Ternary:  0.7% Other: 99.1%)
c   Conflict    : 2904   (Average Length: 165.6) 
c   Loop        : 0      (Average Length: 0.0) 
c   Other       : 0      (Average Length: 0.0)
c   Deleted     : 0     
